param n := 120;
param c := 1500
param : V : p w :=
   0	  71	  61
   1	 106	  96
   2	 101	  91
   3	  47	  37
   4	  63	  53
   5	  86	  76
   6	  60	  50
   7	  76	  66
   8	  80	  70
   9	  97	  87
  10	 102	  92
  11	  45	  35
  12	  63	  53
  13	 105	  95
  14	  57	  47
  15	  66	  56
  16	  65	  55
  17	  96	  86
  18	  42	  32
  19	 109	  99
  20	  93	  83
  21	  98	  88
  22	  51	  41
  23	  73	  63
  24	  87	  77
  25	  70	  60
  26	  76	  66
  27	  63	  53
  28	  89	  79
  29	  91	  81
  30	 106	  96
  31	  44	  34
  32	 109	  99
  33	  57	  47
  34	  84	  74
  35	  97	  87
  36	  54	  44
  37	  87	  77
  38	  62	  52
  39	 109	  99
  40	  79	  69
  41	  74	  64
  42	 104	  94
  43	  48	  38
  44	  79	  69
  45	  71	  61
  46	 108	  98
  47	  50	  40
  48	  94	  84
  49	  99	  89
  50	  59	  49
  51	  74	  64
  52	  63	  53
  53	  51	  41
  54	  44	  34
  55	  95	  85
  56	  45	  35
  57	  65	  55
  58	  71	  61
  59	  78	  68
  60	 110	 100
  61	  85	  75
  62	 108	  98
  63	  46	  36
  64	  54	  44
  65	  67	  57
  66	  34	  24
  67	  70	  60
  68	  55	  45
  69	  58	  48
  70	  70	  60
  71	 104	  94
  72	  81	  71
  73	  80	  70
  74	  74	  64
  75	  72	  62
  76	 103	  93
  77	  30	  20
  78	  79	  69
  79	  47	  37
  80	  73	  63
  81	  71	  61
  82	  36	  26
  83	  64	  54
  84	  99	  89
  85	  56	  46
  86	  64	  54
  87	  60	  50
  88	  42	  32
  89	  81	  71
  90	  72	  62
  91	  50	  40
  92	  36	  26
  93	  69	  59
  94	  72	  62
  95	  37	  27
  96	  70	  60
  97	  60	  50
  98	  84	  74
  99	  44	  34
 100	  50	  40
 101	  80	  70
 102	  66	  56
 103	  33	  23
 104	  76	  66
 105	  67	  57
 106	  53	  43
 107	  55	  45
 108	  75	  65
 109	  35	  25
 110	  92	  82
 111	  92	  82
 112	  47	  37
 113	  76	  66
 114	  57	  47
 115	  54	  44
 116	 104	  94
 117	  33	  23
 118	  34	  24
 119	  61	  51
;

set E :=
   0	   6
   0	  11
   0	  15
   0	  17
   0	  22
   0	  27
   0	  35
   0	  36
   0	  42
   0	  45
   0	  47
   0	  55
   0	  74
   0	  79
   0	  82
   0	  83
   0	  87
   0	  89
   0	 108
   0	 113
   0	 115
   0	 119
   1	   3
   1	   4
   1	   5
   1	  12
   1	  18
   1	  22
   1	  30
   1	  33
   1	  38
   1	  39
   1	  41
   1	  43
   1	  48
   1	  53
   1	  56
   1	  60
   1	  62
   1	  64
   1	  65
   1	  67
   1	  70
   1	  72
   1	  75
   1	  76
   1	  81
   1	  83
   1	  87
   1	  93
   1	  97
   1	 101
   1	 105
   1	 109
   1	 110
   1	 111
   1	 113
   2	   6
   2	  10
   2	  29
   2	  30
   2	  34
   2	  36
   2	  43
   2	  51
   2	  52
   2	  54
   2	  55
   2	  60
   2	  62
   2	  65
   2	  67
   2	  71
   2	  74
   2	  80
   2	  82
   2	  83
   2	  88
   2	  89
   2	  93
   2	 100
   2	 102
   2	 104
   2	 110
   2	 116
   3	   4
   3	   8
   3	  13
   3	  22
   3	  27
   3	  30
   3	  33
   3	  40
   3	  45
   3	  46
   3	  51
   3	  55
   3	  58
   3	  64
   3	  67
   3	  70
   3	  72
   3	  73
   3	  78
   3	  82
   3	  85
   3	  86
   3	  92
   3	  94
   3	  96
   3	 101
   3	 103
   3	 106
   3	 109
   3	 111
   3	 112
   3	 113
   4	   9
   4	  10
   4	  12
   4	  17
   4	  19
   4	  24
   4	  26
   4	  28
   4	  37
   4	  38
   4	  40
   4	  41
   4	  42
   4	  46
   4	  50
   4	  52
   4	  55
   4	  60
   4	  61
   4	  65
   4	  66
   4	  69
   4	  74
   4	  75
   4	  78
   4	  79
   4	  84
   4	  85
   4	  87
   4	  97
   4	 102
   4	 104
   4	 106
   4	 108
   4	 110
   4	 112
   4	 119
   5	  16
   5	  28
   5	  30
   5	  37
   5	  44
   5	  54
   5	  55
   5	  56
   5	  58
   5	  61
   5	  64
   5	  65
   5	  67
   5	  70
   5	  71
   5	  79
   5	  80
   5	  88
   5	  89
   5	  91
   5	  93
   5	 100
   5	 106
   5	 110
   5	 113
   5	 118
   6	   7
   6	   8
   6	   9
   6	  10
   6	  11
   6	  14
   6	  17
   6	  18
   6	  19
   6	  22
   6	  24
   6	  25
   6	  35
   6	  42
   6	  47
   6	  51
   6	  60
   6	  62
   6	  64
   6	  65
   6	  66
   6	  68
   6	  71
   6	  84
   6	  86
   6	  89
   6	  91
   6	 100
   6	 102
   6	 111
   6	 114
   6	 115
   6	 117
   6	 118
   7	  13
   7	  14
   7	  15
   7	  19
   7	  22
   7	  24
   7	  30
   7	  31
   7	  42
   7	  44
   7	  48
   7	  49
   7	  51
   7	  52
   7	  55
   7	  56
   7	  59
   7	  63
   7	  69
   7	  71
   7	  75
   7	  78
   7	  79
   7	  82
   7	  83
   7	  88
   7	  92
   7	  95
   7	  97
   7	  98
   7	 103
   7	 112
   7	 114
   7	 118
   8	  15
   8	  17
   8	  18
   8	  23
   8	  30
   8	  33
   8	  35
   8	  36
   8	  38
   8	  39
   8	  42
   8	  46
   8	  47
   8	  50
   8	  51
   8	  54
   8	  55
   8	  56
   8	  62
   8	  66
   8	  67
   8	  69
   8	  71
   8	  73
   8	  78
   8	  83
   8	  91
   8	  96
   8	  97
   8	 102
   8	 109
   8	 111
   8	 116
   9	  13
   9	  16
   9	  17
   9	  22
   9	  31
   9	  32
   9	  34
   9	  40
   9	  51
   9	  56
   9	  57
   9	  59
   9	  60
   9	  62
   9	  69
   9	  75
   9	  79
   9	  80
   9	  82
   9	  83
   9	  84
   9	  86
   9	  87
   9	  89
   9	  90
   9	  91
   9	  94
   9	  98
   9	  99
   9	 110
   9	 111
   9	 112
   9	 113
   9	 116
  10	  13
  10	  15
  10	  17
  10	  21
  10	  24
  10	  25
  10	  31
  10	  32
  10	  33
  10	  34
  10	  37
  10	  38
  10	  40
  10	  42
  10	  43
  10	  47
  10	  57
  10	  63
  10	  65
  10	  66
  10	  73
  10	  76
  10	  78
  10	  79
  10	  84
  10	  91
  10	  93
  10	  95
  10	 110
  10	 112
  10	 114
  11	  13
  11	  14
  11	  15
  11	  17
  11	  18
  11	  20
  11	  24
  11	  26
  11	  35
  11	  38
  11	  40
  11	  47
  11	  48
  11	  53
  11	  57
  11	  58
  11	  59
  11	  62
  11	  64
  11	  67
  11	  72
  11	  74
  11	  76
  11	  78
  11	  84
  11	  91
  11	  93
  11	  98
  11	 107
  11	 109
  11	 116
  11	 117
  12	  15
  12	  22
  12	  25
  12	  26
  12	  27
  12	  30
  12	  32
  12	  34
  12	  36
  12	  37
  12	  44
  12	  47
  12	  48
  12	  51
  12	  52
  12	  58
  12	  60
  12	  73
  12	  81
  12	  82
  12	  84
  12	  86
  12	  93
  12	 103
  12	 104
  12	 107
  12	 118
  13	  14
  13	  16
  13	  20
  13	  25
  13	  26
  13	  33
  13	  34
  13	  39
  13	  40
  13	  42
  13	  44
  13	  49
  13	  54
  13	  57
  13	  63
  13	  65
  13	  70
  13	  74
  13	  76
  13	  81
  13	  86
  13	  87
  13	  91
  13	  95
  13	  96
  13	 100
  13	 103
  13	 104
  13	 105
  13	 107
  13	 110
  13	 116
  13	 117
  14	  18
  14	  20
  14	  23
  14	  25
  14	  26
  14	  27
  14	  34
  14	  38
  14	  40
  14	  44
  14	  45
  14	  46
  14	  49
  14	  51
  14	  52
  14	  62
  14	  63
  14	  65
  14	  71
  14	  72
  14	  74
  14	  76
  14	  78
  14	  79
  14	  88
  14	  89
  14	  90
  14	  95
  14	 103
  14	 106
  14	 107
  14	 110
  14	 116
  14	 117
  15	  18
  15	  24
  15	  26
  15	  37
  15	  38
  15	  42
  15	  45
  15	  47
  15	  50
  15	  52
  15	  61
  15	  64
  15	  71
  15	  72
  15	  75
  15	  81
  15	  83
  15	  89
  15	  90
  15	  93
  15	  99
  15	 107
  15	 109
  15	 112
  15	 117
  15	 118
  15	 119
  16	  17
  16	  18
  16	  25
  16	  30
  16	  32
  16	  38
  16	  39
  16	  41
  16	  45
  16	  48
  16	  49
  16	  53
  16	  57
  16	  66
  16	  68
  16	  73
  16	  74
  16	  76
  16	  80
  16	  82
  16	  86
  16	  90
  16	  96
  16	 100
  16	 102
  16	 108
  16	 109
  16	 110
  16	 111
  17	  21
  17	  23
  17	  38
  17	  40
  17	  43
  17	  49
  17	  51
  17	  55
  17	  58
  17	  61
  17	  65
  17	  66
  17	  68
  17	  72
  17	  85
  17	  90
  17	  91
  17	  93
  17	  94
  17	  95
  17	  98
  17	 104
  17	 106
  17	 115
  17	 117
  18	  20
  18	  22
  18	  23
  18	  31
  18	  34
  18	  36
  18	  39
  18	  40
  18	  41
  18	  44
  18	  46
  18	  49
  18	  54
  18	  61
  18	  63
  18	  66
  18	  69
  18	  70
  18	  77
  18	  78
  18	  80
  18	  81
  18	  83
  18	  84
  18	  85
  18	  87
  18	  91
  18	  95
  18	  99
  18	 104
  18	 106
  18	 110
  18	 114
  18	 119
  19	  24
  19	  26
  19	  29
  19	  30
  19	  32
  19	  33
  19	  34
  19	  37
  19	  42
  19	  47
  19	  54
  19	  61
  19	  65
  19	  69
  19	  70
  19	  71
  19	  74
  19	  78
  19	  79
  19	  84
  19	  88
  19	  91
  19	  92
  19	 105
  19	 106
  19	 110
  19	 114
  19	 116
  19	 118
  20	  22
  20	  24
  20	  26
  20	  27
  20	  32
  20	  40
  20	  50
  20	  51
  20	  53
  20	  56
  20	  58
  20	  64
  20	  65
  20	  75
  20	  76
  20	  82
  20	  85
  20	  86
  20	  88
  20	  90
  20	  91
  20	  94
  20	  96
  20	  97
  20	  98
  20	 100
  20	 101
  20	 103
  20	 106
  20	 107
  20	 108
  20	 109
  20	 113
  20	 114
  20	 117
  21	  22
  21	  29
  21	  33
  21	  35
  21	  44
  21	  49
  21	  50
  21	  55
  21	  65
  21	  70
  21	  78
  21	  86
  21	  94
  21	 101
  21	 104
  21	 112
  21	 113
  21	 114
  22	  23
  22	  27
  22	  30
  22	  37
  22	  38
  22	  39
  22	  41
  22	  48
  22	  57
  22	  60
  22	  63
  22	  64
  22	  71
  22	  72
  22	  81
  22	  82
  22	  83
  22	  84
  22	  88
  22	  92
  22	  94
  22	  99
  22	 103
  22	 107
  22	 108
  22	 109
  22	 115
  22	 117
  23	  24
  23	  25
  23	  34
  23	  37
  23	  40
  23	  41
  23	  43
  23	  44
  23	  46
  23	  49
  23	  50
  23	  55
  23	  57
  23	  62
  23	  68
  23	  70
  23	  74
  23	  82
  23	  83
  23	  89
  23	  90
  23	  91
  23	  92
  23	  97
  23	 110
  23	 112
  23	 119
  24	  26
  24	  28
  24	  31
  24	  32
  24	  35
  24	  37
  24	  40
  24	  41
  24	  42
  24	  44
  24	  46
  24	  48
  24	  53
  24	  54
  24	  61
  24	  67
  24	  68
  24	  69
  24	  70
  24	  74
  24	  78
  24	  82
  24	  84
  24	  85
  24	  86
  24	  91
  24	  94
  24	  98
  24	  99
  24	 102
  24	 103
  24	 105
  24	 108
  24	 109
  24	 112
  24	 113
  25	  27
  25	  33
  25	  38
  25	  41
  25	  47
  25	  55
  25	  57
  25	  64
  25	  66
  25	  68
  25	  70
  25	  72
  25	  75
  25	  80
  25	  82
  25	  83
  25	  84
  25	  87
  25	  88
  25	  96
  25	  98
  25	 105
  25	 109
  25	 110
  25	 116
  25	 118
  25	 119
  26	  27
  26	  35
  26	  37
  26	  40
  26	  41
  26	  44
  26	  45
  26	  46
  26	  47
  26	  49
  26	  50
  26	  52
  26	  54
  26	  56
  26	  57
  26	  58
  26	  59
  26	  61
  26	  68
  26	  73
  26	  74
  26	  88
  26	  94
  26	  95
  26	  97
  26	  98
  26	  99
  26	 100
  26	 101
  26	 104
  26	 105
  26	 110
  26	 113
  26	 116
  27	  36
  27	  38
  27	  40
  27	  45
  27	  47
  27	  49
  27	  52
  27	  57
  27	  61
  27	  73
  27	  79
  27	  81
  27	  82
  27	  83
  27	  84
  27	  85
  27	  86
  27	  87
  27	  88
  27	  89
  27	  91
  27	  97
  27	 100
  27	 101
  27	 104
  27	 106
  27	 109
  27	 117
  28	  29
  28	  31
  28	  37
  28	  39
  28	  40
  28	  42
  28	  43
  28	  46
  28	  48
  28	  49
  28	  50
  28	  53
  28	  56
  28	  59
  28	  62
  28	  65
  28	  67
  28	  72
  28	  73
  28	  74
  28	  77
  28	  85
  28	  92
  28	  95
  28	  97
  28	  98
  28	 102
  28	 105
  28	 106
  28	 107
  28	 111
  28	 112
  28	 116
  29	  33
  29	  34
  29	  35
  29	  36
  29	  40
  29	  45
  29	  46
  29	  47
  29	  48
  29	  49
  29	  50
  29	  51
  29	  54
  29	  60
  29	  61
  29	  64
  29	  65
  29	  68
  29	  70
  29	  79
  29	  80
  29	  81
  29	  84
  29	  85
  29	  87
  29	  88
  29	  89
  29	  90
  29	  93
  29	  94
  29	  95
  29	 101
  29	 102
  29	 103
  29	 104
  29	 105
  30	  33
  30	  40
  30	  44
  30	  45
  30	  46
  30	  53
  30	  54
  30	  55
  30	  56
  30	  59
  30	  60
  30	  62
  30	  63
  30	  64
  30	  69
  30	  72
  30	  78
  30	  81
  30	  84
  30	  87
  30	  90
  30	  91
  30	  92
  30	  93
  30	 100
  30	 101
  30	 103
  30	 104
  30	 106
  30	 112
  30	 114
  31	  33
  31	  34
  31	  35
  31	  39
  31	  40
  31	  42
  31	  43
  31	  44
  31	  45
  31	  47
  31	  48
  31	  52
  31	  59
  31	  62
  31	  63
  31	  64
  31	  67
  31	  68
  31	  69
  31	  72
  31	  75
  31	  76
  31	  79
  31	  84
  31	  85
  31	  88
  31	  90
  31	  92
  31	  94
  31	  97
  31	 100
  31	 104
  31	 110
  31	 111
  31	 119
  32	  35
  32	  40
  32	  43
  32	  48
  32	  54
  32	  56
  32	  66
  32	  69
  32	  70
  32	  72
  32	  76
  32	  79
  32	  83
  32	  85
  32	  86
  32	  88
  32	  89
  32	  94
  32	  95
  32	  98
  32	  99
  32	 113
  32	 115
  32	 116
  33	  36
  33	  38
  33	  44
  33	  45
  33	  47
  33	  52
  33	  58
  33	  60
  33	  69
  33	  70
  33	  76
  33	  80
  33	  81
  33	  86
  33	  88
  33	  89
  33	  94
  33	  96
  33	  97
  33	 102
  33	 105
  33	 106
  33	 107
  33	 110
  33	 111
  33	 112
  33	 117
  34	  37
  34	  38
  34	  40
  34	  41
  34	  49
  34	  51
  34	  59
  34	  60
  34	  66
  34	  67
  34	  68
  34	  69
  34	  70
  34	  71
  34	  73
  34	  74
  34	  76
  34	  78
  34	  79
  34	  80
  34	  81
  34	  83
  34	  96
  34	  98
  34	 103
  34	 104
  34	 108
  35	  36
  35	  38
  35	  44
  35	  45
  35	  46
  35	  51
  35	  52
  35	  57
  35	  62
  35	  63
  35	  76
  35	  78
  35	  80
  35	  86
  35	  89
  35	  96
  35	 100
  35	 102
  35	 104
  35	 106
  35	 108
  35	 110
  36	  39
  36	  40
  36	  50
  36	  53
  36	  56
  36	  57
  36	  60
  36	  69
  36	  70
  36	  71
  36	  73
  36	  77
  36	  78
  36	  79
  36	  86
  36	  93
  36	  94
  36	  99
  36	 106
  36	 107
  36	 110
  36	 115
  36	 116
  36	 117
  36	 118
  36	 119
  37	  39
  37	  40
  37	  41
  37	  43
  37	  45
  37	  47
  37	  51
  37	  57
  37	  63
  37	  64
  37	  65
  37	  66
  37	  68
  37	  69
  37	  88
  37	  91
  37	  95
  37	  96
  37	  97
  37	  98
  37	 102
  37	 103
  37	 106
  37	 110
  37	 115
  38	  45
  38	  50
  38	  51
  38	  57
  38	  59
  38	  62
  38	  65
  38	  70
  38	  78
  38	  80
  38	  81
  38	  83
  38	  86
  38	  87
  38	  91
  38	  97
  38	 100
  38	 102
  38	 103
  38	 107
  38	 108
  38	 110
  38	 117
  39	  40
  39	  48
  39	  50
  39	  52
  39	  53
  39	  56
  39	  67
  39	  70
  39	  75
  39	  78
  39	  79
  39	  83
  39	  90
  39	  91
  39	  98
  39	  99
  39	 105
  39	 106
  39	 111
  39	 112
  39	 118
  40	  43
  40	  50
  40	  51
  40	  64
  40	  66
  40	  69
  40	  70
  40	  72
  40	  73
  40	  75
  40	  76
  40	  78
  40	  82
  40	  84
  40	  85
  40	  87
  40	  88
  40	  93
  40	  97
  40	  99
  40	 100
  40	 101
  40	 105
  40	 108
  40	 109
  40	 111
  40	 112
  40	 114
  40	 116
  40	 119
  41	  45
  41	  50
  41	  55
  41	  60
  41	  65
  41	  67
  41	  68
  41	  69
  41	  76
  41	  79
  41	  89
  41	  92
  41	 101
  41	 106
  41	 111
  41	 112
  41	 117
  41	 118
  41	 119
  42	  47
  42	  50
  42	  51
  42	  52
  42	  55
  42	  60
  42	  69
  42	  70
  42	  72
  42	  78
  42	  79
  42	  81
  42	  84
  42	  87
  42	  88
  42	  89
  42	  91
  42	  92
  42	  98
  42	  99
  42	 100
  42	 111
  42	 114
  43	  45
  43	  49
  43	  57
  43	  58
  43	  66
  43	  72
  43	  74
  43	  77
  43	  78
  43	  81
  43	  86
  43	  88
  43	  90
  43	  93
  43	  94
  43	 102
  43	 103
  43	 105
  43	 107
  43	 108
  43	 110
  43	 115
  44	  48
  44	  53
  44	  54
  44	  57
  44	  63
  44	  71
  44	  74
  44	  78
  44	  80
  44	  81
  44	  82
  44	  87
  44	  89
  44	  91
  44	  92
  44	  94
  44	  95
  44	 101
  44	 102
  44	 107
  44	 108
  44	 115
  44	 116
  45	  47
  45	  48
  45	  51
  45	  55
  45	  65
  45	  67
  45	  68
  45	  69
  45	  73
  45	  74
  45	  75
  45	  79
  45	  85
  45	  87
  45	  90
  45	  91
  45	  92
  45	  93
  45	  96
  45	  99
  45	 100
  45	 104
  45	 105
  45	 110
  45	 112
  46	  48
  46	  49
  46	  50
  46	  54
  46	  55
  46	  57
  46	  59
  46	  61
  46	  64
  46	  68
  46	  71
  46	  73
  46	  74
  46	  86
  46	  87
  46	  90
  46	  94
  46	 100
  46	 101
  46	 105
  46	 106
  46	 115
  46	 118
  47	  48
  47	  51
  47	  52
  47	  54
  47	  55
  47	  56
  47	  63
  47	  65
  47	  67
  47	  72
  47	  74
  47	  78
  47	  79
  47	  81
  47	  82
  47	  83
  47	  85
  47	  88
  47	  89
  47	  94
  47	 101
  47	 103
  47	 105
  47	 106
  47	 107
  47	 111
  47	 114
  47	 118
  48	  49
  48	  51
  48	  53
  48	  54
  48	  59
  48	  62
  48	  63
  48	  64
  48	  66
  48	  69
  48	  84
  48	  87
  48	  90
  48	  96
  48	  99
  48	 100
  48	 102
  48	 112
  48	 119
  49	  50
  49	  53
  49	  55
  49	  65
  49	  70
  49	  78
  49	  81
  49	  85
  49	  86
  49	  95
  49	  98
  49	 101
  49	 102
  49	 116
  49	 118
  50	  58
  50	  59
  50	  61
  50	  63
  50	  65
  50	  69
  50	  72
  50	  73
  50	  74
  50	  83
  50	  85
  50	  88
  50	  92
  50	  93
  50	  98
  50	 100
  50	 101
  50	 103
  50	 104
  50	 105
  50	 107
  50	 114
  50	 115
  51	  52
  51	  53
  51	  54
  51	  61
  51	  62
  51	  63
  51	  64
  51	  70
  51	  72
  51	  75
  51	  81
  51	  85
  51	  87
  51	  94
  51	  96
  51	 100
  51	 104
  51	 105
  51	 112
  51	 114
  51	 115
  51	 116
  51	 117
  52	  53
  52	  55
  52	  58
  52	  62
  52	  66
  52	  73
  52	  74
  52	  81
  52	  82
  52	  83
  52	  87
  52	  90
  52	  92
  52	  95
  52	  98
  52	 100
  52	 101
  52	 102
  52	 105
  52	 107
  52	 112
  52	 114
  52	 116
  52	 119
  53	  55
  53	  63
  53	  65
  53	  66
  53	  70
  53	  72
  53	  79
  53	  80
  53	  87
  53	  94
  53	 100
  53	 101
  53	 109
  53	 112
  53	 116
  53	 118
  54	  58
  54	  65
  54	  67
  54	  69
  54	  71
  54	  72
  54	  78
  54	  79
  54	  82
  54	  86
  54	  88
  54	  90
  54	  91
  54	  94
  54	  98
  54	 103
  54	 105
  54	 118
  55	  63
  55	  64
  55	  67
  55	  68
  55	  73
  55	  77
  55	  82
  55	  83
  55	  86
  55	  94
  55	  95
  55	  99
  55	 100
  55	 101
  55	 106
  55	 110
  55	 113
  55	 118
  56	  60
  56	  65
  56	  66
  56	  70
  56	  71
  56	  77
  56	  79
  56	  83
  56	  84
  56	  86
  56	  90
  56	  96
  56	 104
  56	 110
  56	 111
  56	 114
  57	  59
  57	  60
  57	  62
  57	  64
  57	  65
  57	  67
  57	  70
  57	  77
  57	  79
  57	  81
  57	  82
  57	  83
  57	  89
  57	  91
  57	  93
  57	  96
  57	 100
  57	 104
  57	 106
  57	 109
  57	 110
  57	 111
  57	 112
  57	 116
  58	  60
  58	  61
  58	  63
  58	  68
  58	  72
  58	  74
  58	  75
  58	  77
  58	  85
  58	  87
  58	  90
  58	  91
  58	  92
  58	  94
  58	  95
  58	  98
  58	 100
  58	 105
  58	 115
  59	  63
  59	  64
  59	  65
  59	  75
  59	  83
  59	  85
  59	  88
  59	  90
  59	  91
  59	  96
  59	  99
  59	 101
  59	 104
  59	 107
  59	 109
  59	 110
  59	 115
  59	 119
  60	  65
  60	  68
  60	  72
  60	  75
  60	  76
  60	  77
  60	  83
  60	  85
  60	  87
  60	  88
  60	  89
  60	  92
  60	  94
  60	  95
  60	 100
  60	 101
  60	 102
  60	 105
  60	 108
  60	 110
  60	 115
  60	 118
  61	  64
  61	  67
  61	  70
  61	  76
  61	  77
  61	  80
  61	  87
  61	  95
  61	  96
  61	 103
  61	 107
  61	 109
  61	 112
  61	 116
  61	 119
  62	  63
  62	  65
  62	  66
  62	  80
  62	  82
  62	  83
  62	  94
  62	  96
  62	 103
  62	 104
  62	 116
  63	  70
  63	  71
  63	  73
  63	  84
  63	  86
  63	  88
  63	  89
  63	  96
  63	 100
  63	 102
  63	 106
  63	 108
  63	 110
  63	 114
  63	 118
  63	 119
  64	  67
  64	  68
  64	  72
  64	  76
  64	  78
  64	  80
  64	  83
  64	  85
  64	  90
  64	  95
  64	 106
  64	 112
  64	 116
  65	  70
  65	  78
  65	  82
  65	  83
  65	  89
  65	  90
  65	  93
  65	  98
  65	 101
  65	 106
  65	 107
  65	 108
  65	 114
  65	 118
  66	  80
  66	  88
  66	  89
  66	  92
  66	  93
  66	  94
  66	 101
  66	 110
  66	 112
  66	 119
  67	  69
  67	  70
  67	  71
  67	  75
  67	  79
  67	  81
  67	  83
  67	  89
  67	  92
  67	  98
  67	 101
  67	 103
  67	 104
  67	 109
  67	 110
  67	 114
  68	  69
  68	  76
  68	  78
  68	  80
  68	  81
  68	  82
  68	  87
  68	  89
  68	  93
  68	  94
  68	  98
  68	 102
  68	 103
  68	 106
  68	 108
  68	 114
  68	 115
  68	 119
  69	  70
  69	  76
  69	  77
  69	  87
  69	  88
  69	  92
  69	  99
  69	 101
  69	 104
  69	 110
  69	 117
  70	  73
  70	  74
  70	  80
  70	  82
  70	  84
  70	  85
  70	  89
  70	  93
  70	  97
  70	  99
  70	 102
  70	 103
  70	 108
  70	 111
  70	 119
  71	  72
  71	  73
  71	  75
  71	  84
  71	  94
  71	  95
  71	  97
  71	  98
  71	 101
  71	 102
  71	 103
  71	 109
  71	 116
  71	 118
  72	  75
  72	  76
  72	  86
  72	  90
  72	  91
  72	  93
  72	  97
  72	  99
  72	 101
  72	 103
  72	 105
  72	 112
  72	 116
  72	 117
  73	  75
  73	  77
  73	  80
  73	  83
  73	  88
  73	  90
  73	  91
  73	  92
  73	  94
  73	  95
  73	  96
  73	  97
  73	 100
  73	 103
  73	 107
  73	 110
  73	 117
  73	 118
  74	  75
  74	  80
  74	  81
  74	  84
  74	  85
  74	  90
  74	  91
  74	  92
  74	  94
  74	  99
  74	 100
  74	 101
  74	 104
  74	 105
  74	 110
  74	 114
  75	  78
  75	  80
  75	  84
  75	  85
  75	  86
  75	  90
  75	  94
  75	  95
  75	 108
  75	 113
  75	 118
  76	  77
  76	  81
  76	  82
  76	  84
  76	  85
  76	  92
  76	  93
  76	  95
  76	  98
  76	  99
  76	 104
  76	 110
  76	 111
  76	 112
  76	 114
  76	 115
  76	 116
  76	 119
  77	  79
  77	  83
  77	  84
  77	  85
  77	  91
  77	  92
  77	  95
  77	  98
  77	 100
  77	 101
  77	 102
  77	 105
  77	 107
  77	 108
  77	 110
  77	 117
  77	 118
  77	 119
  78	  83
  78	  88
  78	  90
  78	  91
  78	  93
  78	  94
  78	  98
  78	  99
  78	 101
  78	 103
  78	 107
  78	 110
  78	 115
  78	 116
  78	 118
  79	  84
  79	  86
  79	  88
  79	  92
  79	  94
  79	  96
  79	  98
  79	  99
  79	 103
  79	 106
  79	 108
  79	 109
  79	 114
  79	 116
  79	 117
  79	 119
  80	  88
  80	  92
  80	  94
  80	  95
  80	  96
  80	 101
  80	 103
  80	 104
  80	 105
  80	 106
  80	 108
  80	 110
  80	 115
  80	 117
  80	 119
  81	  82
  81	  85
  81	  86
  81	  89
  81	  90
  81	  95
  81	  98
  81	  99
  81	 102
  81	 105
  81	 107
  81	 111
  81	 112
  81	 113
  81	 118
  81	 119
  82	  83
  82	  87
  82	  92
  82	  94
  82	  95
  82	 100
  82	 101
  82	 104
  82	 107
  82	 109
  82	 112
  82	 114
  82	 118
  83	  85
  83	  88
  83	  96
  83	  97
  83	 103
  83	 107
  83	 108
  83	 112
  83	 113
  83	 115
  83	 116
  83	 118
  83	 119
  84	  88
  84	  89
  84	  90
  84	  91
  84	  93
  84	  96
  84	  97
  84	  99
  84	 103
  84	 108
  84	 111
  84	 113
  84	 116
  85	  95
  85	 105
  85	 107
  85	 109
  85	 116
  86	  90
  86	  91
  86	  96
  86	  99
  86	 100
  86	 102
  86	 103
  86	 107
  86	 111
  86	 115
  87	  90
  87	  91
  87	  96
  87	 100
  87	 105
  87	 107
  87	 108
  88	  91
  88	  94
  88	 102
  88	 103
  88	 104
  88	 105
  88	 108
  88	 110
  88	 114
  88	 115
  88	 116
  88	 118
  89	 100
  89	 102
  89	 104
  89	 105
  89	 111
  89	 116
  89	 118
  89	 119
  90	  95
  90	  96
  90	  99
  90	 101
  90	 102
  90	 104
  90	 105
  90	 106
  90	 108
  90	 109
  90	 111
  90	 117
  90	 118
  91	  92
  91	  94
  91	  96
  91	 101
  91	 102
  91	 109
  91	 111
  91	 112
  92	  94
  92	  95
  92	  97
  92	 100
  92	 106
  92	 108
  92	 111
  92	 113
  92	 117
  93	  96
  93	 100
  93	 102
  93	 105
  93	 107
  93	 109
  93	 112
  93	 115
  93	 116
  94	  95
  94	  97
  94	 100
  94	 111
  94	 114
  94	 115
  94	 119
  95	  96
  95	  97
  95	 100
  95	 107
  95	 108
  95	 109
  95	 113
  96	  98
  96	  99
  96	 100
  96	 101
  96	 105
  96	 107
  96	 116
  96	 117
  97	 100
  97	 103
  97	 107
  97	 111
  97	 117
  98	 101
  98	 108
  98	 110
  98	 113
  98	 114
  98	 115
  98	 119
  99	 100
  99	 102
  99	 105
  99	 108
  99	 109
  99	 111
  99	 112
  99	 113
  99	 116
 100	 101
 100	 106
 100	 109
 100	 112
 100	 117
 101	 107
 101	 109
 101	 113
 101	 116
 101	 117
 102	 104
 102	 112
 102	 113
 102	 117
 102	 119
 103	 105
 103	 110
 103	 112
 103	 115
 103	 117
 103	 118
 104	 106
 104	 114
 105	 112
 105	 114
 105	 117
 105	 118
 106	 108
 106	 113
 106	 115
 107	 110
 107	 111
 107	 113
 107	 114
 107	 119
 108	 111
 108	 112
 108	 114
 109	 110
 109	 112
 109	 116
 109	 119
 110	 113
 110	 115
 110	 118
 110	 119
 111	 112
 111	 114
 111	 115
 111	 116
 111	 119
 112	 113
 112	 114
 112	 117
 112	 119
 113	 119
 114	 116
 115	 116
 115	 118
 118	 119
;
